95 32 3 65 21 69 10 44 70 86 94 93 83 63 37 1 52 92 24 42 49 43 26 96 50 87 14 23 18 97 56 91 16 19 2 61 98 11 99 59 85 0 72 20 30 5 40 39 84 8 71 64 53 58 12 27 41 48 88 68 73 13 46 6 67 22 31 34 28 62 36 81 77 17 76 51 25 89 54 57 90 9 7 78 15 80 33 74 60 47 55 4 45 82 66 75 79 38 29 35 

